Version identifier: 20.1.0.0 | 2020-11-10 | 9bedb6d68
Found incumbent of value 0.000000 after 0.00 sec. (0.00 ticks)
Tried aggregator 2 times.
MIP Presolve eliminated 95 rows and 23 columns.
MIP Presolve modified 5 coefficients.
Aggregator did 21 substitutions.
Reduced MIP has 56 rows, 60 columns, and 136 nonzeros.
Reduced MIP has 36 binaries, 0 generals, 0 SOSs, and 14 indicators.
Presolve time = 0.00 sec. (0.26 ticks)
Probing fixed 0 vars, tightened 12 bounds.
Probing changed sense of 12 constraints.
Probing time = 0.00 sec. (0.07 ticks)
Cover probing fixed 0 vars, tightened 2 bounds.
Tried aggregator 2 times.
MIP Presolve eliminated 54 rows and 56 columns.
MIP Presolve added 1 rows and 1 columns.
MIP Presolve modified 23 coefficients.
Aggregator did 2 substitutions.
Reduced MIP has 1 rows, 3 columns, and 3 nonzeros.
Reduced MIP has 2 binaries, 1 generals, 0 SOSs, and 0 indicators.
Presolve time = 0.00 sec. (0.09 ticks)
Probing time = 0.00 sec. (0.00 ticks)
Tried aggregator 1 time.
MIP Presolve eliminated 1 rows and 1 columns.
MIP Presolve added 1 rows and 1 columns.
Reduced MIP has 1 rows, 3 columns, and 3 nonzeros.
Reduced MIP has 2 binaries, 1 generals, 0 SOSs, and 0 indicators.
Presolve time = 0.00 sec. (0.00 ticks)
Probing time = 0.00 sec. (0.00 ticks)
MIP emphasis: balance optimality and feasibility.
MIP search method: dynamic search.
Parallel mode: deterministic, using up to 10 threads.
Root relaxation solution time = 0.00 sec. (0.00 ticks)

        Nodes                                         Cuts/
   Node  Left     Objective  IInf  Best Integer    Best Bound    ItCnt     Gap

*     0+    0                         2144.9115     3350.4528            56.20%
*     0     0      integral     0     3350.4528     3350.4528        0    0.00%
Elapsed time = 0.01 sec. (1.46 ticks, tree = 0.00 MB, solutions = 3)

Root node processing (before b&c):
  Real time             =    0.01 sec. (1.47 ticks)
Parallel b&c, 10 threads:
  Real time             =    0.00 sec. (0.00 ticks)
  Sync time (average)   =    0.00 sec.
  Wait time (average)   =    0.00 sec.
                          ------------
Total (root+branch&cut) =    0.01 sec. (1.47 ticks)
